11111111111111111111
11111111111111111111
11111111111111111111
11111111000001111111
11111111000001111111
11111111000001111111
11111111111111111111
11111111111111111111
11111111111111111111
11111111111111111111
11111111111111111111
11111111111111111111
11111111111111111111
11111111111111111111
11111111111111111111
11111111111111111111
9 4
3
0 0 4 9
1 0 8 9
2 0 13 9